DIMACS2
80 210 124 19 6 206 189 214 164 121 117 177 203 310 236 317 186 30 13 12 96 272 170 74 93 161 75 147 199 257 146 256 135 190 95 249 151 279 200 148 28 3 112 296 172 276 167 318 278 17 248 238 57 53 107 225 302 50 73 159 211 29 184 136 120 267 38 143 254 295 102 304 280 49 265 62 246 306 183 171 1
p edge 320 1919
e 0 150 1.0
e 1 24 14.0
e 1 35 1.0
e 1 117 6.0
e 1 40 8.0
e 1 304 36.0
e 1 11 33.0
e 1 246 3.0
e 1 157 42.0
e 1 50 6.0
e 1 39 35.0
e 1 132 18.0
e 1 32 16.0
e 1 310 49.0
e 1 279 7.0
e 1 111 18.0
e 1 98 25.0
e 1 179 12.0
e 1 131 48.0
e 1 275 27.0
e 1 104 3.0
e 1 294 24.0
e 1 153 22.0
e 1 295 1.0
e 1 244 40.0
e 2 133 1.0
e 2 0 1.0
e 3 252 25.0
e 3 237 43.0
e 3 236 33.0
e 3 78 42.0
e 3 304 18.0
e 3 153 49.0
e 3 136 39.0
e 3 242 23.0
e 3 265 18.0
e 3 121 27.0
e 3 183 37.0
e 3 186 7.0
e 3 233 41.0
e 3 279 8.0
e 3 274 29.0
e 3 47 40.0
e 3 251 34.0
e 3 151 10.0
e 3 61 36.0
e 3 259 27.0
e 3 46 46.0
e 3 217 41.0
e 3 113 41.0
e 3 182 48.0
e 3 129 39.0
e 4 314 1.0
e 5 83 2.0
e 5 154 2.0
e 6 34 42.0
e 6 120 32.0
e 6 35 30.0
e 6 60 25.0
e 6 138 24.0
e 6 45 14.0
e 6 163 4.0
e 6 179 28.0
e 6 306 32.0
e 6 318 22.0
e 6 7 38.0
e 6 70 47.0
e 6 285 44.0
e 6 251 12.0
e 6 61 20.0
e 6 28 14.0
e 6 290 45.0
e 6 190 9.0
e 6 123 34.0
e 6 273 49.0
e 6 131 14.0
e 6 198 29.0
e 6 64 1.0
e 6 161 46.0
e 6 72 41.0
e 7 38 45.0
e 8 167 32.0
e 8 97 6.0
e 8 312 5.0
e 8 204 1.0
e 9 88 1.0
e 10 133 1.0
e 11 202 1.0
e 12 205 24.0
e 12 63 49.0
e 12 153 5.0
e 12 135 21.0
e 12 158 31.0
e 12 84 41.0
e 12 60 22.0
e 12 143 41.0
e 12 256 10.0
e 12 204 43.0
e 12 114 2.0
e 12 200 31.0
e 12 115 34.0
e 12 77 29.0
e 12 67 18.0
e 12 257 16.0
e 12 203 6.0
e 12 206 30.0
e 12 16 33.0
e 12 86 19.0
e 12 25 3.0
e 12 107 25.0
e 12 238 32.0
e 12 30 15.0
e 12 146 25.0
e 13 243 36.0
e 13 104 25.0
e 13 211 21.0
e 13 137 20.0
e 13 16 18.0
e 13 64 18.0
e 13 237 20.0
e 13 272 49.0
e 13 132 6.0
e 13 157 39.0
e 13 31 49.0
e 13 52 48.0
e 13 71 23.0
e 13 85 32.0
e 13 186 4.0
e 13 155 21.0
e 13 171 15.0
e 13 187 49.0
e 13 224 19.0
e 13 95 25.0
e 13 128 47.0
e 13 311 40.0
e 13 197 6.0
e 13 244 47.0
e 14 209 1.0
e 15 117 36.0
e 15 2 2.0
e 16 27 1.0
e 17 59 43.0
e 17 41 1.0
e 17 216 7.0
e 17 74 49.0
e 17 301 10.0
e 17 105 17.0
e 17 15 28.0
e 17 143 23.0
e 17 164 24.0
e 17 211 14.0
e 17 40 34.0
e 17 138 28.0
e 17 42 44.0
e 17 262 10.0
e 17 39 46.0
e 17 154 2.0
e 17 67 30.0
e 17 171 20.0
e 17 305 13.0
e 17 165 32.0
e 17 108 24.0
e 17 29 48.0
e 17 203 33.0
e 17 160 28.0
e 17 190 47.0
e 18 105 1.0
e 19 24 13.0
e 19 20 16.0
e 19 301 9.0
e 19 81 41.0
e 19 196 5.0
e 19 148 41.0
e 19 3 36.0
e 19 73 13.0
e 19 278 48.0
e 19 115 30.0
e 19 309 48.0
e 19 310 42.0
e 19 144 47.0
e 19 190 32.0
e 19 220 20.0
e 19 67 9.0
e 19 173 41.0
e 19 16 42.0
e 19 186 36.0
e 19 174 25.0
e 19 21 28.0
e 19 248 14.0
e 19 203 34.0
e 20 22 1.0
e 21 191 1.0
e 22 29 39.0
e 23 222 1.0
e 24 22 1.0
e 25 24 1.0
e 26 267 11.0
e 27 308 1.0
e 28 277 23.0
e 28 295 13.0
e 28 151 37.0
e 28 307 27.0
e 28 82 44.0
e 28 108 22.0
e 28 135 15.0
e 28 75 15.0
e 28 284 12.0
e 28 165 28.0
e 28 248 8.0
e 28 290 24.0
e 28 53 45.0
e 28 93 7.0
e 28 289 30.0
e 28 25 1.0
e 28 62 4.0
e 28 54 47.0
e 28 244 40.0
e 28 95 18.0
e 28 111 46.0
e 28 268 20.0
e 28 230 3.0
e 29 160 34.0
e 29 307 28.0
e 29 249 19.0
e 29 158 11.0
e 29 90 18.0
e 29 113 29.0
e 29 4 30.0
e 29 23 19.0
e 29 308 47.0
e 29 306 41.0
e 29 155 24.0
e 29 49 8.0
e 29 262 25.0
e 29 184 18.0
e 29 203 29.0
e 29 63 29.0
e 29 223 2.0
e 29 9 34.0
e 29 91 40.0
e 29 15 27.0
e 29 149 41.0
e 29 100 35.0
e 29 78 38.0
e 30 278 21.0
e 30 261 49.0
e 30 222 25.0
e 30 195 6.0
e 30 223 27.0
e 30 49 32.0
e 30 258 24.0
e 30 226 10.0
e 30 38 40.0
e 30 20 39.0
e 30 297 8.0
e 30 84 36.0
e 30 77 25.0
e 30 87 14.0
e 30 22 45.0
e 30 144 48.0
e 30 304 32.0
e 30 166 30.0
e 30 225 19.0
e 30 237 41.0
e 30 45 7.0
e 30 72 32.0
e 30 197 41.0
e 30 53 45.0
e 31 304 47.0
e 32 162 1.0
e 32 277 3.0
e 33 318 41.0
e 33 21 1.0
e 34 116 1.0
e 35 103 1.0
e 36 68 1.0
e 37 269 1.0
e 38 306 19.0
e 38 210 33.0
e 38 32 20.0
e 38 6 14.0
e 38 302 13.0
e 38 281 1.0
e 38 89 26.0
e 38 173 24.0
e 38 217 1.0
e 38 73 27.0
e 38 1 6.0
e 38 8 11.0
e 38 182 32.0
e 38 245 3.0
e 38 164 35.0
e 38 35 33.0
e 38 166 29.0
e 38 157 41.0
e 38 98 17.0
e 38 124 3.0
e 39 270 1.0
e 40 261 1.0
e 41 207 1.0
e 42 159 19.0
e 42 286 1.0
e 42 292 4.0
e 43 223 2.0
e 44 120 17.0
e 45 2 2.0
e 46 242 3.0
e 47 251 1.0
e 48 38 48.0
e 49 44 39.0
e 49 43 38.0
e 49 201 34.0
e 49 260 44.0
e 49 211 7.0
e 49 118 18.0
e 49 95 1.0
e 49 210 21.0
e 49 146 3.0
e 49 238 2.0
e 49 98 23.0
e 49 68 47.0
e 49 213 7.0
e 49 175 27.0
e 49 45 9.0
e 49 72 35.0
e 49 138 22.0
e 49 114 27.0
e 49 194 17.0
e 49 178 24.0
e 49 239 31.0
e 49 115 35.0
e 50 198 30.0
e 50 55 46.0
e 50 208 34.0
e 50 314 18.0
e 50 248 15.0
e 50 76 46.0
e 50 48 48.0
e 50 164 48.0
e 50 27 25.0
e 50 73 17.0
e 50 212 26.0
e 50 306 43.0
e 50 266 26.0
e 50 167 17.0
e 50 64 30.0
e 50 107 24.0
e 50 181 20.0
e 50 265 27.0
e 50 210 46.0
e 50 88 25.0
e 50 267 2.0
e 50 214 42.0
e 50 243 43.0
e 50 32 45.0
e 51 283 2.0
e 52 309 1.0
e 53 237 32.0
e 53 296 15.0
e 53 210 49.0
e 53 149 5.0
e 53 81 12.0
e 53 91 26.0
e 53 10 45.0
e 53 72 23.0
e 53 221 28.0
e 53 290 36.0
e 53 253 5.0
e 53 114 12.0
e 53 174 43.0
e 53 275 45.0
e 53 277 40.0
e 53 4 28.0
e 53 23 13.0
e 53 229 20.0
e 53 160 39.0
e 53 216 33.0
e 53 306 3.0
e 53 33 13.0
e 53 11 38.0
e 54 223 3.0
e 54 258 6.0
e 54 85 2.0
e 55 287 1.0
e 56 133 1.0
e 57 304 1.0
e 57 18 31.0
e 57 299 10.0
e 57 274 37.0
e 57 109 28.0
e 57 259 18.0
e 57 61 49.0
e 57 255 4.0
e 57 239 23.0
e 57 114 17.0
e 57 218 37.0
e 57 9 48.0
e 57 45 5.0
e 57 190 13.0
e 57 295 38.0
e 57 204 6.0
e 57 211 1.0
e 57 126 43.0
e 57 159 18.0
e 57 305 42.0
e 57 176 21.0
e 57 181 34.0
e 57 99 25.0
e 57 28 46.0
e 57 194 25.0
e 58 261 1.0
e 59 89 1.0
e 60 195 1.0
e 61 314 1.0
e 62 31 21.0
e 62 156 18.0
e 62 127 45.0
e 62 233 22.0
e 62 33 12.0
e 62 242 30.0
e 62 279 34.0
e 62 293 23.0
e 62 59 28.0
e 62 78 23.0
e 62 246 31.0
e 62 245 2.0
e 62 318 7.0
e 62 32 5.0
e 62 151 13.0
e 62 60 13.0
e 62 241 1.0
e 62 37 6.0
e 62 38 13.0
e 62 96 35.0
e 62 222 45.0
e 62 67 36.0
e 62 54 38.0
e 62 212 47.0
e 63 177 45.0
e 64 7 1.0
e 65 56 1.0
e 66 225 47.0
e 66 304 3.0
e 67 226 1.0
e 68 274 1.0
e 69 252 1.0
e 70 168 3.0
e 71 153 2.0
e 72 118 1.0
e 73 28 39.0
e 73 290 44.0
e 73 58 23.0
e 73 204 10.0
e 73 144 19.0
e 73 242 13.0
e 73 251 29.0
e 73 317 39.0
e 73 239 26.0
e 73 273 39.0
e 73 107 40.0
e 73 162 46.0
e 73 183 17.0
e 73 233 36.0
e 73 93 31.0
e 73 243 44.0
e 73 13 18.0
e 73 125 16.0
e 73 65 38.0
e 73 241 46.0
e 73 296 14.0
e 73 169 5.0
e 74 48 40.0
e 74 254 16.0
e 74 265 46.0
e 74 241 32.0
e 74 225 32.0
e 74 222 25.0
e 74 29 17.0
e 74 35 9.0
e 74 188 29.0
e 74 81 47.0
e 74 196 28.0
e 74 275 36.0
e 74 263 40.0
e 74 158 29.0
e 74 61 25.0
e 74 137 5.0
e 74 206 10.0
e 74 62 23.0
e 74 57 17.0
e 74 102 35.0
e 74 82 26.0
e 74 227 36.0
e 74 46 1.0
e 74 12 49.0
e 75 51 36.0
e 75 294 19.0
e 75 211 39.0
e 75 243 2.0
e 75 120 39.0
e 75 312 38.0
e 75 146 33.0
e 75 145 9.0
e 75 184 44.0
e 75 166 16.0
e 75 235 17.0
e 75 236 26.0
e 75 281 47.0
e 75 118 26.0
e 75 186 49.0
e 75 3 8.0
e 75 56 25.0
e 75 61 10.0
e 75 65 46.0
e 75 245 31.0
e 75 74 20.0
e 75 246 22.0
e 75 90 25.0
e 75 98 32.0
e 76 20 2.0
e 77 316 2.0
e 78 151 17.0
e 79 81 1.0
e 80 160 1.0
e 81 11 1.0
e 82 26 1.0
e 83 19 49.0
e 84 180 1.0
e 85 137 1.0
e 86 41 2.0
e 87 209 1.0
e 88 60 1.0
e 89 169 3.0
e 90 242 2.0
e 91 149 1.0
e 92 277 1.0
e 93 213 47.0
e 93 277 24.0
e 93 75 26.0
e 93 227 7.0
e 93 11 28.0
e 93 138 44.0
e 93 283 14.0
e 93 260 2.0
e 93 234 8.0
e 93 95 14.0
e 93 158 20.0
e 93 278 1.0
e 93 90 45.0
e 93 270 20.0
e 93 291 32.0
e 93 67 27.0
e 93 209 7.0
e 93 14 46.0
e 93 16 48.0
e 93 292 31.0
e 93 41 38.0
e 93 13 13.0
e 94 232 1.0
e 95 192 22.0
e 95 239 46.0
e 95 207 44.0
e 95 231 41.0
e 95 99 39.0
e 95 286 21.0
e 95 43 29.0
e 95 223 45.0
e 95 243 25.0
e 95 142 48.0
e 95 287 14.0
e 95 143 18.0
e 95 68 6.0
e 95 232 45.0
e 95 162 27.0
e 95 137 15.0
e 95 22 38.0
e 95 308 3.0
e 95 188 44.0
e 95 77 29.0
e 95 164 26.0
e 96 94 48.0
e 96 135 11.0
e 96 52 16.0
e 96 160 42.0
e 96 239 6.0
e 96 70 18.0
e 96 269 48.0
e 96 74 26.0
e 96 130 40.0
e 96 53 34.0
e 96 21 1.0
e 96 122 32.0
e 96 209 12.0
e 96 217 3.0
e 96 203 40.0
e 96 154 19.0
e 96 144 16.0
e 96 211 18.0
e 96 275 19.0
e 96 294 44.0
e 96 173 38.0
e 96 248 6.0
e 96 159 23.0
e 97 180 1.0
e 98 15 1.0
e 99 85 1.0
e 100 293 1.0
e 101 111 1.0
e 102 103 6.0
e 102 267 1.0
e 102 182 38.0
e 102 144 42.0
e 102 82 43.0
e 102 69 27.0
e 102 140 14.0
e 102 188 42.0
e 102 308 46.0
e 102 213 15.0
e 102 161 5.0
e 102 164 21.0
e 102 101 1.0
e 102 250 7.0
e 102 136 18.0
e 102 98 28.0
e 102 76 25.0
e 102 208 31.0
e 102 107 19.0
e 102 295 13.0
e 102 287 44.0
e 102 7 33.0
e 102 219 24.0
e 102 145 26.0
e 103 163 1.0
e 104 250 4.0
e 105 220 1.0
e 106 236 7.0
e 106 211 6.0
e 107 125 23.0
e 107 62 23.0
e 107 302 35.0
e 107 56 47.0
e 107 48 2.0
e 107 214 30.0
e 107 28 23.0
e 107 291 35.0
e 107 245 17.0
e 107 1 37.0
e 107 114 39.0
e 107 41 48.0
e 107 260 9.0
e 107 145 29.0
e 107 265 11.0
e 107 246 14.0
e 107 21 22.0
e 107 88 28.0
e 107 130 30.0
e 107 116 48.0
e 108 233 1.0
e 109 250 1.0
e 110 290 1.0
e 111 230 1.0
e 112 267 16.0
e 112 17 45.0
e 112 153 26.0
e 112 298 40.0
e 112 314 49.0
e 112 101 18.0
e 112 165 5.0
e 112 0 1.0
e 112 287 5.0
e 112 89 33.0
e 112 56 29.0
e 112 48 49.0
e 112 62 36.0
e 112 97 24.0
e 112 253 5.0
e 112 113 38.0
e 112 238 47.0
e 112 114 34.0
e 112 103 2.0
e 112 269 35.0
e 112 173 5.0
e 112 236 21.0
e 112 311 37.0
e 112 12 30.0
e 112 166 13.0
e 113 116 1.0
e 114 317 44.0
e 115 203 44.0
e 115 13 42.0
e 115 91 2.0
e 116 81 1.0
e 117 190 43.0
e 117 58 6.0
e 117 226 26.0
e 117 179 1.0
e 117 249 38.0
e 117 216 12.0
e 117 132 23.0
e 117 32 9.0
e 117 97 27.0
e 117 305 7.0
e 117 231 31.0
e 117 51 14.0
e 117 88 43.0
e 117 205 36.0
e 117 17 4.0
e 117 271 40.0
e 117 261 14.0
e 117 74 41.0
e 117 245 44.0
e 117 106 2.0
e 117 270 18.0
e 117 62 38.0
e 117 54 5.0
e 118 38 25.0
e 119 187 1.0
e 120 187 8.0
e 120 13 19.0
e 120 318 47.0
e 120 281 47.0
e 120 251 9.0
e 120 22 21.0
e 120 272 35.0
e 120 182 29.0
e 120 71 47.0
e 120 218 38.0
e 120 284 40.0
e 120 186 1.0
e 120 102 14.0
e 120 301 21.0
e 120 177 29.0
e 120 43 24.0
e 120 312 24.0
e 120 137 38.0
e 120 119 4.0
e 120 113 40.0
e 120 20 6.0
e 120 176 7.0
e 121 265 39.0
e 121 221 1.0
e 121 156 45.0
e 121 84 5.0
e 121 219 4.0
e 121 9 21.0
e 121 66 15.0
e 121 220 13.0
e 121 226 45.0
e 121 119 46.0
e 121 303 25.0
e 121 274 47.0
e 121 95 40.0
e 121 19 7.0
e 121 32 22.0
e 121 216 39.0
e 121 178 17.0
e 121 23 8.0
e 121 306 19.0
e 121 155 24.0
e 121 74 31.0
e 121 14 17.0
e 121 24 10.0
e 121 185 14.0
e 122 315 1.0
e 123 201 2.0
e 123 103 1.0
e 123 156 6.0
e 124 99 38.0
e 124 7 30.0
e 124 17 17.0
e 124 266 6.0
e 124 74 29.0
e 124 169 4.0
e 124 180 11.0
e 124 26 49.0
e 124 253 32.0
e 124 187 26.0
e 124 265 37.0
e 124 221 28.0
e 124 62 6.0
e 124 108 2.0
e 124 118 14.0
e 124 176 6.0
e 124 89 6.0
e 124 250 20.0
e 124 196 26.0
e 124 130 21.0
e 124 69 4.0
e 124 301 38.0
e 125 286 2.0
e 126 94 1.0
e 127 253 1.0
e 128 165 1.0
e 129 232 2.0
e 130 242 1.0
e 131 231 1.0
e 132 141 1.0
e 133 202 1.0
e 134 99 1.0
e 135 59 9.0
e 135 178 14.0
e 135 316 13.0
e 135 19 32.0
e 135 266 20.0
e 135 236 35.0
e 135 220 12.0
e 135 253 45.0
e 135 230 42.0
e 135 137 39.0
e 135 25 45.0
e 135 278 10.0
e 135 121 30.0
e 135 13 35.0
e 135 238 46.0
e 135 279 43.0
e 135 267 37.0
e 135 63 34.0
e 135 102 24.0
e 135 194 29.0
e 135 7 22.0
e 136 309 2.0
e 136 310 8.0
e 136 4 7.0
e 136 228 46.0
e 136 170 19.0
e 136 300 9.0
e 136 5 4.0
e 136 14 22.0
e 136 213 42.0
e 136 195 4.0
e 136 66 1.0
e 136 36 45.0
e 136 192 20.0
e 136 245 6.0
e 136 148 45.0
e 136 80 42.0
e 136 132 8.0
e 136 308 3.0
e 136 226 4.0
e 136 229 39.0
e 136 230 6.0
e 136 205 13.0
e 137 64 1.0
e 138 244 1.0
e 139 270 1.0
e 140 223 2.0
e 141 60 1.0
e 142 289 1.0
e 143 139 7.0
e 143 128 1.0
e 143 63 36.0
e 143 289 34.0
e 143 84 12.0
e 143 306 43.0
e 143 208 48.0
e 143 155 6.0
e 143 307 38.0
e 143 89 25.0
e 143 225 38.0
e 143 130 30.0
e 143 90 34.0
e 143 176 21.0
e 143 156 11.0
e 143 5 46.0
e 143 122 22.0
e 143 166 45.0
e 143 199 7.0
e 143 102 27.0
e 144 210 4.0
e 145 27 2.0
e 146 168 36.0
e 146 28 30.0
e 146 123 23.0
e 146 73 12.0
e 146 8 42.0
e 146 65 25.0
e 146 224 47.0
e 146 165 41.0
e 146 201 34.0
e 146 318 2.0
e 146 109 1.0
e 146 195 36.0
e 146 6 35.0
e 146 39 14.0
e 146 5 10.0
e 146 38 20.0
e 146 106 9.0
e 146 154 23.0
e 146 108 20.0
e 146 314 13.0
e 146 246 40.0
e 146 227 11.0
e 147 192 34.0
e 147 276 20.0
e 147 148 42.0
e 147 124 39.0
e 147 79 23.0
e 147 271 47.0
e 147 260 48.0
e 147 24 18.0
e 147 8 26.0
e 147 169 20.0
e 147 210 43.0
e 147 296 25.0
e 147 77 22.0
e 147 85 23.0
e 147 91 17.0
e 147 272 45.0
e 147 73 38.0
e 147 72 2.0
e 147 75 14.0
e 147 56 44.0
e 147 9 22.0
e 147 23 4.0
e 147 53 21.0
e 148 87 15.0
e 148 221 37.0
e 148 280 49.0
e 148 31 36.0
e 148 73 46.0
e 148 102 13.0
e 148 241 31.0
e 148 27 9.0
e 148 69 5.0
e 148 33 46.0
e 148 29 41.0
e 148 113 19.0
e 148 174 35.0
e 148 34 20.0
e 148 222 3.0
e 148 111 26.0
e 148 318 19.0
e 148 151 31.0
e 148 181 17.0
e 148 116 4.0
e 148 271 3.0
e 148 306 37.0
e 149 269 1.0
e 150 105 1.0
e 151 253 24.0
e 151 246 20.0
e 151 44 8.0
e 151 280 40.0
e 151 140 11.0
e 151 119 48.0
e 151 35 39.0
e 151 36 15.0
e 151 249 46.0
e 151 22 20.0
e 151 175 30.0
e 151 109 21.0
e 151 161 49.0
e 151 241 42.0
e 151 149 26.0
e 151 90 15.0
e 151 80 25.0
e 151 318 6.0
e 151 79 4.0
e 151 181 10.0
e 152 13 43.0
e 153 220 1.0
e 154 200 20.0
e 155 285 1.0
e 156 4 1.0
e 157 92 1.0
e 158 284 5.0
e 158 49 48.0
e 159 59 12.0
e 159 310 9.0
e 159 271 24.0
e 159 147 29.0
e 159 91 29.0
e 159 64 16.0
e 159 19 6.0
e 159 183 15.0
e 159 315 18.0
e 159 276 39.0
e 159 53 32.0
e 159 106 44.0
e 159 135 9.0
e 159 104 28.0
e 159 3 25.0
e 159 17 12.0
e 159 133 26.0
e 159 247 33.0
e 159 222 39.0
e 159 225 9.0
e 159 232 33.0
e 159 82 19.0
e 160 130 2.0
e 161 77 10.0
e 161 78 42.0
e 161 25 6.0
e 161 168 45.0
e 161 163 11.0
e 161 53 39.0
e 161 119 45.0
e 161 155 7.0
e 161 94 17.0
e 161 288 22.0
e 161 315 10.0
e 161 23 23.0
e 161 157 29.0
e 161 109 3.0
e 161 73 46.0
e 161 17 44.0
e 161 289 13.0
e 161 95 9.0
e 161 9 9.0
e 161 167 35.0
e 161 173 41.0
e 161 108 3.0
e 162 301 1.0
e 163 152 1.0
e 164 34 18.0
e 164 288 18.0
e 164 282 43.0
e 164 121 14.0
e 164 115 42.0
e 164 122 42.0
e 164 238 14.0
e 164 246 4.0
e 164 152 41.0
e 164 103 22.0
e 164 177 11.0
e 164 51 24.0
e 164 234 39.0
e 164 14 3.0
e 164 199 1.0
e 164 316 38.0
e 164 247 19.0
e 164 159 12.0
e 165 38 38.0
e 166 234 1.0
e 167 285 45.0
e 167 179 11.0
e 167 259 39.0
e 167 159 33.0
e 167 25 49.0
e 167 224 12.0
e 167 256 18.0
e 167 76 4.0
e 167 169 34.0
e 167 120 28.0
e 167 189 11.0
e 167 133 35.0
e 167 310 6.0
e 167 149 6.0
e 167 225 44.0
e 167 233 39.0
e 167 176 44.0
e 167 96 35.0
e 167 246 4.0
e 167 180 14.0
e 167 312 17.0
e 167 306 48.0
e 168 88 1.0
e 169 101 1.0
e 170 182 11.0
e 170 34 16.0
e 170 199 48.0
e 170 298 34.0
e 170 30 12.0
e 170 271 33.0
e 170 224 17.0
e 170 12 2.0
e 170 216 12.0
e 170 200 1.0
e 170 7 35.0
e 170 2 21.0
e 170 148 44.0
e 170 161 12.0
e 170 201 37.0
e 170 158 20.0
e 170 115 8.0
e 170 159 17.0
e 170 219 30.0
e 170 311 19.0
e 170 122 19.0
e 170 150 20.0
e 170 117 49.0
e 170 8 26.0
e 171 214 3.0
e 171 282 1.0
e 171 267 28.0
e 171 92 43.0
e 171 57 30.0
e 171 285 38.0
e 171 58 5.0
e 171 102 39.0
e 171 15 11.0
e 171 278 34.0
e 171 153 3.0
e 171 111 29.0
e 171 161 10.0
e 171 197 42.0
e 171 213 49.0
e 171 148 2.0
e 171 260 46.0
e 171 93 22.0
e 171 120 18.0
e 171 172 48.0
e 171 279 20.0
e 171 288 47.0
e 171 248 37.0
e 172 236 31.0
e 172 254 37.0
e 172 191 42.0
e 172 304 16.0
e 172 112 24.0
e 172 246 6.0
e 172 265 31.0
e 172 50 6.0
e 172 147 48.0
e 172 266 38.0
e 172 45 24.0
e 172 80 13.0
e 172 146 42.0
e 172 53 17.0
e 172 92 38.0
e 172 183 44.0
e 172 203 10.0
e 172 261 4.0
e 172 120 34.0
e 172 279 46.0
e 172 174 30.0
e 172 309 3.0
e 173 172 24.0
e 174 246 7.0
e 175 143 12.0
e 176 116 3.0
e 177 317 41.0
e 177 316 6.0
e 177 211 9.0
e 177 267 33.0
e 177 292 40.0
e 177 161 9.0
e 177 104 46.0
e 177 107 17.0
e 177 283 32.0
e 177 249 25.0
e 177 194 31.0
e 177 280 44.0
e 177 143 27.0
e 177 26 2.0
e 177 278 38.0
e 177 27 41.0
e 177 265 11.0
e 177 167 36.0
e 177 18 11.0
e 177 28 26.0
e 177 298 26.0
e 178 247 1.0
e 179 68 1.0
e 180 145 1.0
e 181 190 22.0
e 182 189 31.0
e 183 177 5.0
e 183 50 17.0
e 183 250 6.0
e 183 80 28.0
e 183 96 7.0
e 183 163 48.0
e 183 311 44.0
e 183 246 13.0
e 183 150 49.0
e 183 93 3.0
e 183 300 39.0
e 183 193 22.0
e 183 112 45.0
e 183 128 31.0
e 183 207 49.0
e 183 110 20.0
e 183 14 11.0
e 183 46 26.0
e 183 54 12.0
e 183 42 36.0
e 184 252 25.0
e 184 95 28.0
e 184 28 49.0
e 184 115 39.0
e 184 211 31.0
e 184 310 23.0
e 184 57 22.0
e 184 187 44.0
e 184 262 28.0
e 184 313 1.0
e 184 196 2.0
e 184 41 11.0
e 184 221 31.0
e 184 154 11.0
e 184 71 32.0
e 184 194 45.0
e 184 10 36.0
e 184 234 10.0
e 184 69 9.0
e 184 147 6.0
e 184 93 1.0
e 184 162 43.0
e 184 82 11.0
e 185 203 14.0
e 186 135 48.0
e 186 82 18.0
e 186 69 37.0
e 186 65 33.0
e 186 282 32.0
e 186 167 7.0
e 186 211 26.0
e 186 134 48.0
e 186 246 1.0
e 186 271 36.0
e 186 188 24.0
e 186 66 24.0
e 186 184 10.0
e 186 316 38.0
e 186 221 23.0
e 186 266 15.0
e 186 131 13.0
e 186 143 32.0
e 186 57 44.0
e 186 125 17.0
e 187 59 1.0
e 188 285 2.0
e 189 164 14.0
e 189 288 30.0
e 189 12 17.0
e 189 302 39.0
e 189 26 6.0
e 189 295 41.0
e 189 254 43.0
e 189 252 5.0
e 189 126 19.0
e 189 34 43.0
e 189 29 40.0
e 189 147 27.0
e 189 115 19.0
e 189 234 9.0
e 189 294 4.0
e 189 108 44.0
e 189 188 38.0
e 189 173 32.0
e 189 158 15.0
e 189 49 43.0
e 189 8 18.0
e 189 19 16.0
e 189 83 42.0
e 190 185 39.0
e 190 93 9.0
e 190 119 32.0
e 190 26 20.0
e 190 126 2.0
e 190 265 26.0
e 190 304 46.0
e 190 131 1.0
e 190 134 9.0
e 190 158 30.0
e 190 186 22.0
e 190 138 21.0
e 190 29 31.0
e 190 281 11.0
e 190 191 33.0
e 190 101 29.0
e 190 282 27.0
e 190 231 3.0
e 191 145 1.0
e 192 20 1.0
e 193 277 1.0
e 194 164 47.0
e 195 44 1.0
e 196 244 1.0
e 197 185 2.0
e 198 269 1.0
e 199 32 24.0
e 199 112 30.0
e 199 1 25.0
e 199 141 13.0
e 199 83 6.0
e 199 49 35.0
e 199 200 28.0
e 199 267 26.0
e 199 39 17.0
e 199 295 47.0
e 199 151 29.0
e 199 84 31.0
e 199 227 2.0
e 199 238 33.0
e 199 157 15.0
e 199 50 35.0
e 199 268 22.0
e 199 228 7.0
e 199 15 24.0
e 199 284 8.0
e 199 26 18.0
e 199 117 10.0
e 200 175 33.0
e 200 16 31.0
e 200 185 48.0
e 200 78 37.0
e 200 232 25.0
e 200 189 6.0
e 200 213 3.0
e 200 29 4.0
e 200 306 41.0
e 200 65 12.0
e 200 246 11.0
e 200 313 7.0
e 200 18 3.0
e 200 161 39.0
e 200 217 5.0
e 200 235 47.0
e 200 54 26.0
e 200 302 22.0
e 200 247 12.0
e 200 94 41.0
e 200 295 36.0
e 201 93 46.0
e 202 63 1.0
e 203 41 41.0
e 203 298 31.0
e 203 218 23.0
e 203 296 37.0
e 203 306 1.0
e 203 110 1.0
e 203 38 36.0
e 203 174 48.0
e 203 179 27.0
e 203 193 16.0
e 203 170 45.0
e 203 151 41.0
e 203 304 31.0
e 203 128 19.0
e 203 93 46.0
e 203 85 12.0
e 203 186 36.0
e 204 11 1.0
e 205 261 1.0
e 206 76 42.0
e 206 317 46.0
e 206 66 27.0
e 206 167 9.0
e 206 207 11.0
e 206 273 32.0
e 206 138 9.0
e 206 255 35.0
e 206 258 35.0
e 206 175 18.0
e 206 144 44.0
e 206 259 10.0
e 206 70 40.0
e 206 30 4.0
e 206 252 8.0
e 206 18 37.0
e 206 112 42.0
e 206 54 14.0
e 206 139 19.0
e 206 262 8.0
e 206 126 5.0
e 206 86 7.0
e 206 194 15.0
e 207 122 1.0
e 208 190 37.0
e 209 258 2.0
e 210 163 43.0
e 210 254 30.0
e 210 12 39.0
e 210 267 16.0
e 210 263 49.0
e 210 158 34.0
e 210 132 37.0
e 210 176 38.0
e 210 272 2.0
e 210 273 29.0
e 210 86 27.0
e 210 306 9.0
e 210 143 43.0
e 210 283 28.0
e 210 232 39.0
e 210 10 41.0
e 210 109 5.0
e 210 19 2.0
e 210 30 24.0
e 211 202 33.0
e 211 191 44.0
e 211 163 30.0
e 211 296 47.0
e 211 258 6.0
e 211 40 33.0
e 211 70 29.0
e 211 229 9.0
e 211 295 4.0
e 211 201 33.0
e 211 144 22.0
e 211 189 4.0
e 211 97 32.0
e 211 134 13.0
e 212 143 7.0
e 213 312 3.0
e 214 147 7.0
e 214 38 11.0
e 214 209 13.0
e 214 306 23.0
e 214 217 9.0
e 214 106 15.0
e 214 288 21.0
e 214 152 42.0
e 214 94 30.0
e 214 177 8.0
e 214 211 1.0
e 214 36 39.0
e 214 282 25.0
e 214 255 44.0
e 214 139 9.0
e 214 30 17.0
e 214 274 15.0
e 214 164 48.0
e 214 289 9.0
e 214 167 33.0
e 215 196 1.0
e 216 92 1.0
e 217 193 1.0
e 218 273 2.0
e 219 31 1.0
e 220 80 1.0
e 221 284 1.0
e 222 1 43.0
e 223 124 36.0
e 224 290 3.0
e 225 214 10.0
e 225 70 23.0
e 225 272 23.0
e 225 164 30.0
e 225 73 3.0
e 225 71 38.0
e 225 110 1.0
e 225 31 1.0
e 225 75 32.0
e 225 306 1.0
e 225 46 12.0
e 225 36 16.0
e 225 33 10.0
e 225 76 25.0
e 225 52 6.0
e 225 177 45.0
e 225 107 20.0
e 225 154 26.0
e 225 207 8.0
e 226 281 2.0
e 227 105 2.0
e 228 101 1.0
e 229 230 1.0
e 230 134 1.0
e 231 103 1.0
e 232 256 44.0
e 233 286 1.0
e 234 141 1.0
e 235 305 1.0
e 236 288 12.0
e 236 240 30.0
e 236 291 44.0
e 236 257 22.0
e 236 115 13.0
e 236 49 26.0
e 236 57 26.0
e 236 148 30.0
e 236 58 43.0
e 236 30 41.0
e 236 272 45.0
e 236 197 28.0
e 236 134 14.0
e 236 128 32.0
e 236 78 20.0
e 236 283 26.0
e 236 70 33.0
e 236 165 41.0
e 236 97 28.0
e 237 192 1.0
e 238 46 37.0
e 238 110 23.0
e 238 128 21.0
e 238 94 9.0
e 238 146 36.0
e 238 249 36.0
e 238 47 20.0
e 238 33 20.0
e 238 71 13.0
e 238 293 21.0
e 238 35 27.0
e 238 302 47.0
e 238 75 25.0
e 238 147 1.0
e 238 235 26.0
e 238 184 17.0
e 238 117 10.0
e 238 10 34.0
e 238 265 6.0
e 239 48 1.0
e 240 115 8.0
e 241 149 1.0
e 242 147 14.0
e 243 198 1.0
e 244 297 1.0
e 245 317 9.0
e 246 312 10.0
e 246 177 1.0
e 246 272 39.0
e 246 98 25.0
e 246 315 29.0
e 246 100 38.0
e 246 302 45.0
e 246 262 4.0
e 246 87 46.0
e 246 37 11.0
e 246 83 1.0
e 246 38 3.0
e 247 124 34.0
e 248 281 38.0
e 248 146 15.0
e 248 37 36.0
e 248 167 26.0
e 248 214 24.0
e 248 86 27.0
e 248 1 23.0
e 248 272 3.0
e 248 291 41.0
e 248 117 37.0
e 248 306 20.0
e 248 39 5.0
e 248 100 1.0
e 248 42 14.0
e 248 46 37.0
e 248 79 27.0
e 248 201 2.0
e 248 177 6.0
e 248 87 9.0
e 248 218 3.0
e 249 202 37.0
e 249 96 8.0
e 249 106 36.0
e 249 158 46.0
e 249 317 31.0
e 249 120 3.0
e 249 37 8.0
e 249 129 32.0
e 249 40 13.0
e 249 135 49.0
e 249 86 33.0
e 249 262 17.0
e 249 291 48.0
e 249 292 14.0
e 249 302 28.0
e 249 58 19.0
e 249 303 3.0
e 249 95 49.0
e 249 121 23.0
e 249 218 14.0
e 250 145 3.0
e 251 78 4.0
e 252 279 44.0
e 253 231 2.0
e 254 158 12.0
e 254 246 15.0
e 254 75 36.0
e 254 47 29.0
e 254 235 19.0
e 254 129 19.0
e 254 37 4.0
e 254 120 31.0
e 254 112 13.0
e 254 40 6.0
e 254 123 48.0
e 254 278 32.0
e 254 159 4.0
e 254 148 9.0
e 254 96 49.0
e 254 161 11.0
e 254 164 30.0
e 254 121 31.0
e 254 273 13.0
e 254 135 35.0
e 254 295 10.0
e 255 285 1.0
e 256 273 7.0
e 256 107 9.0
e 256 117 23.0
e 256 135 28.0
e 256 254 41.0
e 256 136 31.0
e 256 40 14.0
e 256 255 43.0
e 256 42 10.0
e 256 257 24.0
e 256 246 20.0
e 256 172 43.0
e 256 121 5.0
e 256 291 22.0
e 256 43 18.0
e 256 272 8.0
e 256 224 31.0
e 256 55 1.0
e 256 47 27.0
e 256 79 37.0
e 256 168 8.0
e 256 44 10.0
e 257 287 8.0
e 257 135 14.0
e 257 198 26.0
e 257 42 27.0
e 257 66 16.0
e 257 95 35.0
e 257 148 46.0
e 257 292 46.0
e 257 150 47.0
e 257 43 40.0
e 257 139 17.0
e 257 183 38.0
e 257 143 45.0
e 257 146 43.0
e 257 44 11.0
e 257 47 27.0
e 257 235 27.0
e 257 79 31.0
e 257 49 30.0
e 257 254 2.0
e 257 50 20.0
e 257 51 41.0
e 258 136 20.0
e 259 247 5.0
e 260 63 2.0
e 261 211 31.0
e 262 275 1.0
e 263 240 1.0
e 264 162 1.0
e 265 195 28.0
e 265 51 5.0
e 265 42 14.0
e 265 236 29.0
e 265 76 18.0
e 265 77 32.0
e 265 292 12.0
e 265 83 10.0
e 265 164 44.0
e 265 96 2.0
e 265 99 41.0
e 265 159 49.0
e 265 104 4.0
e 265 317 17.0
e 265 183 47.0
e 266 2 1.0
e 267 87 8.0
e 267 279 13.0
e 267 141 37.0
e 267 51 43.0
e 267 164 12.0
e 267 150 9.0
e 267 307 25.0
e 267 83 14.0
e 267 240 48.0
e 267 211 22.0
e 267 144 5.0
e 267 219 20.0
e 267 263 2.0
e 267 99 35.0
e 267 293 21.0
e 267 309 4.0
e 268 315 1.0
e 269 294 1.0
e 270 198 2.0
e 271 105 1.0
e 272 80 12.0
e 272 263 34.0
e 272 302 5.0
e 272 2 25.0
e 272 249 48.0
e 272 100 34.0
e 272 104 21.0
e 272 122 11.0
e 272 279 32.0
e 272 177 8.0
e 272 0 33.0
e 272 107 2.0
e 272 317 33.0
e 272 50 4.0
e 272 293 10.0
e 272 110 24.0
e 273 21 5.0
e 274 183 10.0
e 275 270 1.0
e 276 305 4.0
e 276 306 31.0
e 276 302 37.0
e 276 211 17.0
e 276 317 45.0
e 276 52 13.0
e 276 293 35.0
e 276 180 30.0
e 276 123 22.0
e 276 100 42.0
e 276 224 14.0
e 276 104 13.0
e 276 107 8.0
e 276 124 24.0
e 276 125 27.0
e 276 55 16.0
e 276 126 35.0
e 276 3 47.0
e 276 183 27.0
e 276 168 22.0
e 276 127 4.0
e 276 129 38.0
e 276 265 22.0
e 277 243 1.0
e 278 10 19.0
e 278 246 9.0
e 278 52 38.0
e 278 55 39.0
e 278 178 15.0
e 278 100 20.0
e 278 279 39.0
e 278 263 19.0
e 278 146 20.0
e 278 123 3.0
e 278 124 45.0
e 278 125 4.0
e 278 126 3.0
e 278 127 18.0
e 278 227 17.0
e 278 129 35.0
e 278 295 17.0
e 278 136 28.0
e 279 116 5.0
e 279 123 20.0
e 279 52 41.0
e 279 276 35.0
e 279 273 15.0
e 279 124 25.0
e 279 55 20.0
e 279 295 41.0
e 279 225 15.0
e 279 264 7.0
e 279 318 18.0
e 279 306 26.0
e 279 204 31.0
e 279 189 34.0
e 279 125 35.0
e 280 86 36.0
e 280 136 46.0
e 280 318 32.0
e 280 246 49.0
e 280 55 36.0
e 280 124 46.0
e 280 127 33.0
e 280 142 41.0
e 280 129 44.0
e 280 139 17.0
e 280 309 47.0
e 280 140 4.0
e 280 141 34.0
e 280 143 37.0
e 280 181 22.0
e 280 189 39.0
e 280 152 28.0
e 280 154 11.0
e 280 183 28.0
e 280 168 12.0
e 280 190 32.0
e 280 259 32.0
e 281 10 1.0
e 282 23 1.0
e 283 131 1.0
e 284 92 1.0
e 285 174 1.0
e 286 214 8.0
e 287 187 1.0
e 288 297 2.0
e 289 160 2.0
e 290 195 1.0
e 291 295 19.0
e 292 287 2.0
e 293 19 19.0
e 294 18 1.0
e 295 286 25.0
e 295 259 29.0
e 295 127 17.0
e 295 136 33.0
e 295 296 25.0
e 295 246 26.0
e 295 247 11.0
e 295 139 46.0
e 295 140 47.0
e 295 142 9.0
e 295 255 32.0
e 295 151 42.0
e 295 169 16.0
e 296 71 15.0
e 296 136 22.0
e 296 140 49.0
e 296 142 12.0
e 296 240 35.0
e 296 151 16.0
e 296 317 5.0
e 296 254 23.0
e 296 152 32.0
e 296 154 28.0
e 296 170 23.0
e 296 171 45.0
e 296 172 33.0
e 296 178 7.0
e 296 257 23.0
e 296 181 38.0
e 296 183 42.0
e 296 184 21.0
e 296 185 20.0
e 297 78 3.0
e 298 68 1.0
e 299 219 1.0
e 300 156 1.0
e 301 96 47.0
e 302 237 19.0
e 302 142 29.0
e 302 151 15.0
e 302 152 41.0
e 302 170 41.0
e 302 5 14.0
e 302 236 11.0
e 302 197 25.0
e 302 171 40.0
e 302 172 41.0
e 302 1 1.0
e 302 178 30.0
e 302 278 4.0
e 302 198 48.0
e 302 303 46.0
e 302 184 4.0
e 303 36 1.0
e 304 119 14.0
e 304 297 28.0
e 304 202 23.0
e 304 259 36.0
e 304 142 16.0
e 304 170 27.0
e 304 184 30.0
e 304 236 3.0
e 304 300 39.0
e 304 264 15.0
e 304 171 18.0
e 304 296 24.0
e 304 6 30.0
e 304 185 16.0
e 304 186 32.0
e 304 189 27.0
e 305 107 8.0
e 306 172 20.0
e 306 295 35.0
e 306 170 11.0
e 306 171 37.0
e 306 186 48.0
e 306 190 33.0
e 306 193 36.0
e 307 306 29.0
e 308 192 1.0
e 309 104 4.0
e 310 118 18.0
e 310 272 31.0
e 310 171 14.0
e 310 172 35.0
e 310 186 47.0
e 310 296 44.0
e 310 259 9.0
e 310 238 27.0
e 310 190 3.0
e 310 193 18.0
e 310 204 44.0
e 310 273 1.0
e 310 254 28.0
e 310 297 46.0
e 310 248 39.0
e 310 249 49.0
e 310 197 36.0
e 310 199 39.0
e 310 200 7.0
e 311 264 1.0
e 312 301 1.0
e 313 60 2.0
e 314 311 1.0
e 315 175 1.0
e 316 191 1.0
e 317 113 49.0
e 317 199 26.0
e 317 304 18.0
e 317 172 28.0
e 317 190 45.0
e 317 200 14.0
e 317 203 17.0
e 317 205 7.0
e 317 208 31.0
e 317 210 6.0
e 317 306 26.0
e 317 268 31.0
e 317 211 10.0
e 317 295 15.0
e 317 212 24.0
e 318 90 19.0
e 318 190 33.0
e 318 199 14.0
e 318 248 21.0
e 318 295 1.0
e 318 200 16.0
e 318 203 39.0
e 318 214 9.0
e 318 276 43.0
e 318 205 23.0
e 318 4 18.0
e 318 228 36.0
e 318 206 10.0
e 318 208 15.0
e 318 210 29.0
e 318 211 47.0
e 319 49 23.0
e 319 304 32.0
